DIMENSION: 7
EDGE_WEIGHT_TYPE: EXPLICIT
EDGE_WEIGHT_FORMAT: FULL_MATRIX
EDGE_WEIGHT_SECTION:
32767 32767 32767 56 32767 32767 32767 
32767 32767 32767 32767 37 63 57 
32767 32767 32767 32767 32767 32767 32767 
56 32767 32767 32767 75 32767 79 
32767 37 32767 75 32767 82 32767 
32767 63 32767 32767 82 32767 32767 
32767 57 32767 79 32767 32767 32767 
EOF